(set-logic BV)

(synth-fun deobfucated ( (a (BitVec 64))  (d (BitVec 64))  ) (BitVec 64)
	(
		(Start (BitVec 64)
			(
				(bvnot Start)
				(bvxor Start Start)
				(bvand Start Start)
				(bvor Start Start)
				(bvneg Start)
				(bvadd Start Start)
				(bvmul Start Start)
				(bvsub Start Start)
				a d
			)
		)
	)
)

(constraint (= (deobfucated #x000000001b8e1dcb #x00000000167b0fb3) #xfffffffffaaefdf9))
(constraint (= (deobfucated #x000000000cbb20c4 #x000000003812f6bb) #xffffffffcbf76fad))
(constraint (= (deobfucated #x000000002cd00609 #x000000001c5a3125) #xffffffffef77d8dd))
(constraint (= (deobfucated #x0000000005240e71 #x000000000b2e8bc7) #xfffffffff7fdfedf))
(constraint (= (deobfucated #x00000000177dd2d8 #x0000000005d5109a) #xffffffffedd77dfe))
(constraint (= (deobfucated #x00000000247ee2e1 #x0000000004e17631) #xfffffffffffe6b31))
(constraint (= (deobfucated #x0000000020f07eb8 #x000000003244ad1d) #xfffffffffdcbbedb))
(constraint (= (deobfucated #x000000000b10179b #x000000001dbbd5a3) #xfffffffffd5ffff9))
(constraint (= (deobfucated #x00000000168e432a #x0000000020f2004d) #xffffffffcfffbfbb))
(constraint (= (deobfucated #x00000000125b314b #x00000000252216dd) #xffffffffd9efffff))
(constraint (= (deobfucated #x000000001a1c626b #x000000000d159433) #xfffffffffef67ff9))
(constraint (= (deobfucated #x000000001ac873b2 #x0000000024bc593d) #xffffffffd1bff77b))
(constraint (= (deobfucated #x0000000035500d69 #x0000000005686a0d) #xffffffffdfc7b8dd))
(constraint (= (deobfucated #x000000002214872f #x00000000353fd7b1) #xffffffffeddeff7f))
(constraint (= (deobfucated #x0000000034790447 #x000000000591d958) #xffffffffef77a7e9))
(constraint (= (deobfucated #x000000000011dc8f #x00000000311fa86f) #xffffffffdefdfb21))
(constraint (= (deobfucated #x00000000388e8bc2 #x0000000030273ea8) #xfffffffffff6fbd6))
(constraint (= (deobfucated #x0000000027bdd857 #x0000000018fe3f08) #xffffffffc4fe3bb9))
(constraint (= (deobfucated #x000000002054f84c #x000000000bcc4840) #xffffffffdfe77ff4))
(constraint (= (deobfucated #x000000000182905c #x000000000a1a6e6a) #xffffffffff6f4fda))
(check-synth)